50
750
589
583
577
567
560
559
520
519
518
505
496
484
476
469
461
456
452
452
449
448
415
410
407
395
394
393
393
389
386
385
366
365
356
346
340
325
320
299
297
294
290
286
282
279
255
246
219
208
196
183
